26 10000
51 2038
9 574
85 6239
27 1286
31 8145
38 207
97 4906
49 8086
48 8020
40 8848
98 1035
93 8899
37 1284
28 5606
43 7250
70 9688
31 4328
63 6308
29 2733
4 6365
88 3001
65 2922
2 8265
49 7688
55 751
71 1030
